%%MatrixMarket matrix coordinate real general
% Ordinary incidence for continuous SO+(1,1) boost
1008 168 2016
1 1 -1
1 2 1
2 1 -1
2 3 1
3 1 -1
3 4 1
4 1 -1
4 158 1
5 1 -1
5 93 1
6 1 -1
6 28 1
7 1 -1
7 5 1
8 1 -1
8 53 1
9 1 -1
9 103 1
10 1 -1
10 151 1
11 1 -1
11 19 1
12 1 -1
12 23 1
13 2 -1
13 4 1
14 2 -1
14 3 1
15 2 -1
15 159 1
16 2 -1
16 95 1
17 2 -1
17 26 1
18 2 -1
18 6 1
19 2 -1
19 56 1
20 2 -1
20 101 1
21 2 -1
21 150 1
22 2 -1
22 20 1
23 2 -1
23 24 1
24 3 -1
24 4 1
25 3 -1
25 160 1
26 3 -1
26 96 1
27 3 -1
27 27 1
28 3 -1
28 8 1
29 3 -1
29 55 1
30 3 -1
30 104 1
31 3 -1
31 152 1
32 3 -1
32 17 1
33 3 -1
33 22 1
34 4 -1
34 157 1
35 4 -1
35 94 1
36 4 -1
36 25 1
37 4 -1
37 7 1
38 4 -1
38 54 1
39 4 -1
39 102 1
40 4 -1
40 149 1
41 4 -1
41 18 1
42 4 -1
42 21 1
43 5 -1
43 6 1
44 5 -1
44 7 1
45 5 -1
45 8 1
46 5 -1
46 154 1
47 5 -1
47 81 1
48 5 -1
48 32 1
49 5 -1
49 49 1
50 5 -1
50 119 1
51 5 -1
51 163 1
52 5 -1
52 23 1
53 5 -1
53 19 1
54 6 -1
54 8 1
55 6 -1
55 7 1
56 6 -1
56 155 1
57 6 -1
57 83 1
58 6 -1
58 30 1
59 6 -1
59 52 1
60 6 -1
60 117 1
61 6 -1
61 162 1
62 6 -1
62 24 1
63 6 -1
63 20 1
64 7 -1
64 8 1
65 7 -1
65 156 1
66 7 -1
66 84 1
67 7 -1
67 31 1
68 7 -1
68 51 1
69 7 -1
69 120 1
70 7 -1
70 164 1
71 7 -1
71 21 1
72 7 -1
72 18 1
73 8 -1
73 153 1
74 8 -1
74 82 1
75 8 -1
75 29 1
76 8 -1
76 50 1
77 8 -1
77 118 1
78 8 -1
78 161 1
79 8 -1
79 22 1
80 8 -1
80 17 1
81 9 -1
81 13 1
82 9 -1
82 17 1
83 9 -1
83 21 1
84 9 -1
84 151 1
85 9 -1
85 76 1
86 9 -1
86 45 1
87 9 -1
87 10 1
88 9 -1
88 58 1
89 9 -1
89 109 1
90 9 -1
90 158 1
91 9 -1
91 11 1
92 9 -1
92 12 1
93 10 -1
93 14 1
94 10 -1
94 18 1
95 10 -1
95 22 1
96 10 -1
96 150 1
97 10 -1
97 74 1
98 10 -1
98 46 1
99 10 -1
99 57 1
100 10 -1
100 112 1
101 10 -1
101 159 1
102 10 -1
102 12 1
103 10 -1
103 11 1
104 11 -1
104 16 1
105 11 -1
105 19 1
106 11 -1
106 24 1
107 11 -1
107 152 1
108 11 -1
108 75 1
109 11 -1
109 48 1
110 11 -1
110 12 1
111 11 -1
111 60 1
112 11 -1
112 111 1
113 11 -1
113 160 1
114 12 -1
114 15 1
115 12 -1
115 20 1
116 12 -1
116 23 1
117 12 -1
117 149 1
118 12 -1
118 73 1
119 12 -1
119 47 1
120 12 -1
120 59 1
121 12 -1
121 110 1
122 12 -1
122 157 1
123 13 -1
123 21 1
124 13 -1
124 17 1
125 13 -1
125 163 1
126 13 -1
126 88 1
127 13 -1
127 37 1
128 13 -1
128 14 1
129 13 -1
129 70 1
130 13 -1
130 97 1
131 13 -1
131 154 1
132 13 -1
132 15 1
133 13 -1
133 16 1
134 14 -1
134 22 1
135 14 -1
135 18 1
136 14 -1
136 162 1
137 14 -1
137 86 1
138 14 -1
138 38 1
139 14 -1
139 69 1
140 14 -1
140 100 1
141 14 -1
141 155 1
142 14 -1
142 16 1
143 14 -1
143 15 1
144 15 -1
144 23 1
145 15 -1
145 20 1
146 15 -1
146 164 1
147 15 -1
147 87 1
148 15 -1
148 40 1
149 15 -1
149 16 1
150 15 -1
150 72 1
151 15 -1
151 99 1
152 15 -1
152 156 1
153 16 -1
153 24 1
154 16 -1
154 19 1
155 16 -1
155 161 1
156 16 -1
156 85 1
157 16 -1
157 39 1
158 16 -1
158 71 1
159 16 -1
159 98 1
160 16 -1
160 153 1
161 17 -1
161 21 1
162 17 -1
162 167 1
163 17 -1
163 92 1
164 17 -1
164 41 1
165 17 -1
165 22 1
166 17 -1
166 66 1
167 17 -1
167 114 1
168 17 -1
168 165 1
169 18 -1
169 22 1
170 18 -1
170 166 1
171 18 -1
171 90 1
172 18 -1
172 42 1
173 18 -1
173 21 1
174 18 -1
174 65 1
175 18 -1
175 116 1
176 18 -1
176 168 1
177 19 -1
177 24 1
178 19 -1
178 165 1
179 19 -1
179 89 1
180 19 -1
180 44 1
181 19 -1
181 23 1
182 19 -1
182 67 1
183 19 -1
183 115 1
184 19 -1
184 167 1
185 20 -1
185 23 1
186 20 -1
186 168 1
187 20 -1
187 91 1
188 20 -1
188 43 1
189 20 -1
189 24 1
190 20 -1
190 68 1
191 20 -1
191 113 1
192 20 -1
192 166 1
193 21 -1
193 147 1
194 21 -1
194 80 1
195 21 -1
195 33 1
196 21 -1
196 62 1
197 21 -1
197 106 1
198 21 -1
198 145 1
199 22 -1
199 146 1
200 22 -1
200 78 1
201 22 -1
201 34 1
202 22 -1
202 61 1
203 22 -1
203 108 1
204 22 -1
204 148 1
205 23 -1
205 145 1
206 23 -1
206 77 1
207 23 -1
207 36 1
208 23 -1
208 63 1
209 23 -1
209 107 1
210 23 -1
210 147 1
211 24 -1
211 148 1
212 24 -1
212 79 1
213 24 -1
213 35 1
214 24 -1
214 64 1
215 24 -1
215 105 1
216 24 -1
216 146 1
217 25 -1
217 26 1
218 25 -1
218 27 1
219 25 -1
219 28 1
220 25 -1
220 94 1
221 25 -1
221 157 1
222 25 -1
222 49 1
223 25 -1
223 29 1
224 25 -1
224 39 1
225 25 -1
225 47 1
226 25 -1
226 123 1
227 25 -1
227 147 1
228 26 -1
228 28 1
229 26 -1
229 27 1
230 26 -1
230 95 1
231 26 -1
231 159 1
232 26 -1
232 50 1
233 26 -1
233 32 1
234 26 -1
234 37 1
235 26 -1
235 46 1
236 26 -1
236 124 1
237 26 -1
237 148 1
238 27 -1
238 28 1
239 27 -1
239 96 1
240 27 -1
240 160 1
241 27 -1
241 52 1
242 27 -1
242 31 1
243 27 -1
243 40 1
244 27 -1
244 48 1
245 27 -1
245 121 1
246 27 -1
246 146 1
247 28 -1
247 93 1
248 28 -1
248 158 1
249 28 -1
249 51 1
250 28 -1
250 30 1
251 28 -1
251 38 1
252 28 -1
252 45 1
253 28 -1
253 122 1
254 28 -1
254 145 1
255 29 -1
255 30 1
256 29 -1
256 31 1
257 29 -1
257 32 1
258 29 -1
258 82 1
259 29 -1
259 153 1
260 29 -1
260 53 1
261 29 -1
261 47 1
262 29 -1
262 39 1
263 29 -1
263 143 1
264 29 -1
264 167 1
265 30 -1
265 32 1
266 30 -1
266 31 1
267 30 -1
267 83 1
268 30 -1
268 155 1
269 30 -1
269 54 1
270 30 -1
270 45 1
271 30 -1
271 38 1
272 30 -1
272 144 1
273 30 -1
273 168 1
274 31 -1
274 32 1
275 31 -1
275 84 1
276 31 -1
276 156 1
277 31 -1
277 56 1
278 31 -1
278 48 1
279 31 -1
279 40 1
280 31 -1
280 141 1
281 31 -1
281 166 1
282 32 -1
282 81 1
283 32 -1
283 154 1
284 32 -1
284 55 1
285 32 -1
285 46 1
286 32 -1
286 37 1
287 32 -1
287 142 1
288 32 -1
288 165 1
289 33 -1
289 37 1
290 33 -1
290 41 1
291 33 -1
291 45 1
292 33 -1
292 80 1
293 33 -1
293 147 1
294 33 -1
294 57 1
295 33 -1
295 34 1
296 33 -1
296 35 1
297 33 -1
297 36 1
298 33 -1
298 133 1
299 33 -1
299 157 1
300 34 -1
300 38 1
301 34 -1
301 42 1
302 34 -1
302 46 1
303 34 -1
303 78 1
304 34 -1
304 146 1
305 34 -1
305 58 1
306 34 -1
306 36 1
307 34 -1
307 35 1
308 34 -1
308 136 1
309 34 -1
309 160 1
310 35 -1
310 39 1
311 35 -1
311 44 1
312 35 -1
312 48 1
313 35 -1
313 79 1
314 35 -1
314 148 1
315 35 -1
315 59 1
316 35 -1
316 36 1
317 35 -1
317 135 1
318 35 -1
318 159 1
319 36 -1
319 40 1
320 36 -1
320 43 1
321 36 -1
321 47 1
322 36 -1
322 77 1
323 36 -1
323 145 1
324 36 -1
324 60 1
325 36 -1
325 134 1
326 36 -1
326 158 1
327 37 -1
327 45 1
328 37 -1
328 41 1
329 37 -1
329 88 1
330 37 -1
330 163 1
331 37 -1
331 61 1
332 37 -1
332 46 1
333 37 -1
333 137 1
334 37 -1
334 161 1
335 38 -1
335 46 1
336 38 -1
336 42 1
337 38 -1
337 86 1
338 38 -1
338 162 1
339 38 -1
339 62 1
340 38 -1
340 45 1
341 38 -1
341 140 1
342 38 -1
342 164 1
343 39 -1
343 48 1
344 39 -1
344 44 1
345 39 -1
345 85 1
346 39 -1
346 161 1
347 39 -1
347 63 1
348 39 -1
348 47 1
349 39 -1
349 139 1
350 39 -1
350 163 1
351 40 -1
351 47 1
352 40 -1
352 43 1
353 40 -1
353 87 1
354 40 -1
354 164 1
355 40 -1
355 64 1
356 40 -1
356 48 1
357 40 -1
357 138 1
358 40 -1
358 162 1
359 41 -1
359 45 1
360 41 -1
360 92 1
361 41 -1
361 167 1
362 41 -1
362 69 1
363 41 -1
363 42 1
364 41 -1
364 43 1
365 41 -1
365 44 1
366 41 -1
366 125 1
367 41 -1
367 153 1
368 42 -1
368 46 1
369 42 -1
369 90 1
370 42 -1
370 166 1
371 42 -1
371 70 1
372 42 -1
372 44 1
373 42 -1
373 43 1
374 42 -1
374 128 1
375 42 -1
375 156 1
376 43 -1
376 47 1
377 43 -1
377 91 1
378 43 -1
378 168 1
379 43 -1
379 71 1
380 43 -1
380 44 1
381 43 -1
381 127 1
382 43 -1
382 155 1
383 44 -1
383 48 1
384 44 -1
384 89 1
385 44 -1
385 165 1
386 44 -1
386 72 1
387 44 -1
387 126 1
388 44 -1
388 154 1
389 45 -1
389 76 1
390 45 -1
390 151 1
391 45 -1
391 65 1
392 45 -1
392 129 1
393 45 -1
393 149 1
394 46 -1
394 74 1
395 46 -1
395 150 1
396 46 -1
396 66 1
397 46 -1
397 132 1
398 46 -1
398 152 1
399 47 -1
399 73 1
400 47 -1
400 149 1
401 47 -1
401 67 1
402 47 -1
402 131 1
403 47 -1
403 151 1
404 48 -1
404 75 1
405 48 -1
405 152 1
406 48 -1
406 68 1
407 48 -1
407 130 1
408 48 -1
408 150 1
409 49 -1
409 50 1
410 49 -1
410 51 1
411 49 -1
411 52 1
412 49 -1
412 70 1
413 49 -1
413 57 1
414 49 -1
414 56 1
415 49 -1
415 163 1
416 49 -1
416 119 1
417 49 -1
417 147 1
418 49 -1
418 123 1
419 50 -1
419 52 1
420 50 -1
420 51 1
421 50 -1
421 71 1
422 50 -1
422 59 1
423 50 -1
423 54 1
424 50 -1
424 161 1
425 50 -1
425 118 1
426 50 -1
426 148 1
427 50 -1
427 124 1
428 51 -1
428 52 1
429 51 -1
429 72 1
430 51 -1
430 60 1
431 51 -1
431 55 1
432 51 -1
432 164 1
433 51 -1
433 120 1
434 51 -1
434 145 1
435 51 -1
435 122 1
436 52 -1
436 69 1
437 52 -1
437 58 1
438 52 -1
438 53 1
439 52 -1
439 162 1
440 52 -1
440 117 1
441 52 -1
441 146 1
442 52 -1
442 121 1
443 53 -1
443 54 1
444 53 -1
444 55 1
445 53 -1
445 56 1
446 53 -1
446 58 1
447 53 -1
447 69 1
448 53 -1
448 151 1
449 53 -1
449 103 1
450 53 -1
450 167 1
451 53 -1
451 143 1
452 54 -1
452 56 1
453 54 -1
453 55 1
454 54 -1
454 59 1
455 54 -1
455 71 1
456 54 -1
456 149 1
457 54 -1
457 102 1
458 54 -1
458 168 1
459 54 -1
459 144 1
460 55 -1
460 56 1
461 55 -1
461 60 1
462 55 -1
462 72 1
463 55 -1
463 152 1
464 55 -1
464 104 1
465 55 -1
465 165 1
466 55 -1
466 142 1
467 56 -1
467 57 1
468 56 -1
468 70 1
469 56 -1
469 150 1
470 56 -1
470 101 1
471 56 -1
471 166 1
472 56 -1
472 141 1
473 57 -1
473 61 1
474 57 -1
474 65 1
475 57 -1
475 69 1
476 57 -1
476 70 1
477 57 -1
477 159 1
478 57 -1
478 112 1
479 57 -1
479 157 1
480 57 -1
480 133 1
481 58 -1
481 62 1
482 58 -1
482 66 1
483 58 -1
483 70 1
484 58 -1
484 69 1
485 58 -1
485 158 1
486 58 -1
486 109 1
487 58 -1
487 160 1
488 58 -1
488 136 1
489 59 -1
489 63 1
490 59 -1
490 68 1
491 59 -1
491 72 1
492 59 -1
492 71 1
493 59 -1
493 157 1
494 59 -1
494 110 1
495 59 -1
495 159 1
496 59 -1
496 135 1
497 60 -1
497 64 1
498 60 -1
498 67 1
499 60 -1
499 71 1
500 60 -1
500 72 1
501 60 -1
501 160 1
502 60 -1
502 111 1
503 60 -1
503 158 1
504 60 -1
504 134 1
505 61 -1
505 69 1
506 61 -1
506 65 1
507 61 -1
507 64 1
508 61 -1
508 63 1
509 61 -1
509 62 1
510 61 -1
510 148 1
511 61 -1
511 108 1
512 61 -1
512 161 1
513 61 -1
513 137 1
514 62 -1
514 70 1
515 62 -1
515 66 1
516 62 -1
516 63 1
517 62 -1
517 64 1
518 62 -1
518 145 1
519 62 -1
519 106 1
520 62 -1
520 164 1
521 62 -1
521 140 1
522 63 -1
522 72 1
523 63 -1
523 68 1
524 63 -1
524 64 1
525 63 -1
525 147 1
526 63 -1
526 107 1
527 63 -1
527 163 1
528 63 -1
528 139 1
529 64 -1
529 71 1
530 64 -1
530 67 1
531 64 -1
531 146 1
532 64 -1
532 105 1
533 64 -1
533 162 1
534 64 -1
534 138 1
535 65 -1
535 69 1
536 65 -1
536 68 1
537 65 -1
537 67 1
538 65 -1
538 66 1
539 65 -1
539 168 1
540 65 -1
540 116 1
541 65 -1
541 149 1
542 65 -1
542 129 1
543 66 -1
543 70 1
544 66 -1
544 67 1
545 66 -1
545 68 1
546 66 -1
546 165 1
547 66 -1
547 114 1
548 66 -1
548 152 1
549 66 -1
549 132 1
550 67 -1
550 71 1
551 67 -1
551 68 1
552 67 -1
552 167 1
553 67 -1
553 115 1
554 67 -1
554 151 1
555 67 -1
555 131 1
556 68 -1
556 72 1
557 68 -1
557 166 1
558 68 -1
558 113 1
559 68 -1
559 150 1
560 68 -1
560 130 1
561 69 -1
561 155 1
562 69 -1
562 100 1
563 69 -1
563 153 1
564 69 -1
564 125 1
565 70 -1
565 154 1
566 70 -1
566 97 1
567 70 -1
567 156 1
568 70 -1
568 128 1
569 71 -1
569 153 1
570 71 -1
570 98 1
571 71 -1
571 155 1
572 71 -1
572 127 1
573 72 -1
573 156 1
574 72 -1
574 99 1
575 72 -1
575 154 1
576 72 -1
576 126 1
577 73 -1
577 97 1
578 73 -1
578 121 1
579 73 -1
579 145 1
580 73 -1
580 149 1
581 73 -1
581 74 1
582 73 -1
582 82 1
583 73 -1
583 85 1
584 73 -1
584 94 1
585 73 -1
585 75 1
586 73 -1
586 76 1
587 74 -1
587 98 1
588 74 -1
588 122 1
589 74 -1
589 146 1
590 74 -1
590 150 1
591 74 -1
591 81 1
592 74 -1
592 88 1
593 74 -1
593 95 1
594 74 -1
594 76 1
595 74 -1
595 75 1
596 75 -1
596 100 1
597 75 -1
597 123 1
598 75 -1
598 148 1
599 75 -1
599 152 1
600 75 -1
600 76 1
601 75 -1
601 84 1
602 75 -1
602 87 1
603 75 -1
603 96 1
604 76 -1
604 99 1
605 76 -1
605 124 1
606 76 -1
606 147 1
607 76 -1
607 151 1
608 76 -1
608 83 1
609 76 -1
609 86 1
610 76 -1
610 93 1
611 77 -1
611 101 1
612 77 -1
612 125 1
613 77 -1
613 149 1
614 77 -1
614 145 1
615 77 -1
615 81 1
616 77 -1
616 78 1
617 77 -1
617 79 1
618 77 -1
618 80 1
619 77 -1
619 89 1
620 77 -1
620 93 1
621 78 -1
621 102 1
622 78 -1
622 126 1
623 78 -1
623 150 1
624 78 -1
624 146 1
625 78 -1
625 82 1
626 78 -1
626 80 1
627 78 -1
627 79 1
628 78 -1
628 92 1
629 78 -1
629 96 1
630 79 -1
630 103 1
631 79 -1
631 128 1
632 79 -1
632 152 1
633 79 -1
633 148 1
634 79 -1
634 83 1
635 79 -1
635 80 1
636 79 -1
636 91 1
637 79 -1
637 95 1
638 80 -1
638 104 1
639 80 -1
639 127 1
640 80 -1
640 151 1
641 80 -1
641 147 1
642 80 -1
642 84 1
643 80 -1
643 90 1
644 80 -1
644 94 1
645 81 -1
645 105 1
646 81 -1
646 129 1
647 81 -1
647 153 1
648 81 -1
648 154 1
649 81 -1
649 95 1
650 81 -1
650 88 1
651 81 -1
651 93 1
652 81 -1
652 89 1
653 82 -1
653 106 1
654 82 -1
654 130 1
655 82 -1
655 154 1
656 82 -1
656 153 1
657 82 -1
657 94 1
658 82 -1
658 85 1
659 82 -1
659 96 1
660 82 -1
660 92 1
661 83 -1
661 107 1
662 83 -1
662 132 1
663 83 -1
663 156 1
664 83 -1
664 155 1
665 83 -1
665 93 1
666 83 -1
666 86 1
667 83 -1
667 95 1
668 83 -1
668 91 1
669 84 -1
669 108 1
670 84 -1
670 131 1
671 84 -1
671 155 1
672 84 -1
672 156 1
673 84 -1
673 96 1
674 84 -1
674 87 1
675 84 -1
675 94 1
676 84 -1
676 90 1
677 85 -1
677 109 1
678 85 -1
678 141 1
679 85 -1
679 165 1
680 85 -1
680 161 1
681 85 -1
681 86 1
682 85 -1
682 94 1
683 85 -1
683 87 1
684 85 -1
684 88 1
685 86 -1
685 110 1
686 86 -1
686 142 1
687 86 -1
687 166 1
688 86 -1
688 162 1
689 86 -1
689 93 1
690 86 -1
690 88 1
691 86 -1
691 87 1
692 87 -1
692 112 1
693 87 -1
693 143 1
694 87 -1
694 168 1
695 87 -1
695 164 1
696 87 -1
696 88 1
697 87 -1
697 96 1
698 88 -1
698 111 1
699 88 -1
699 144 1
700 88 -1
700 167 1
701 88 -1
701 163 1
702 88 -1
702 95 1
703 89 -1
703 117 1
704 89 -1
704 133 1
705 89 -1
705 161 1
706 89 -1
706 165 1
707 89 -1
707 93 1
708 89 -1
708 90 1
709 89 -1
709 91 1
710 89 -1
710 92 1
711 90 -1
711 118 1
712 90 -1
712 134 1
713 90 -1
713 162 1
714 90 -1
714 166 1
715 90 -1
715 94 1
716 90 -1
716 92 1
717 90 -1
717 91 1
718 91 -1
718 119 1
719 91 -1
719 136 1
720 91 -1
720 164 1
721 91 -1
721 168 1
722 91 -1
722 95 1
723 91 -1
723 92 1
724 92 -1
724 120 1
725 92 -1
725 135 1
726 92 -1
726 163 1
727 92 -1
727 167 1
728 92 -1
728 96 1
729 93 -1
729 113 1
730 93 -1
730 137 1
731 93 -1
731 157 1
732 93 -1
732 158 1
733 94 -1
733 114 1
734 94 -1
734 138 1
735 94 -1
735 158 1
736 94 -1
736 157 1
737 95 -1
737 115 1
738 95 -1
738 140 1
739 95 -1
739 160 1
740 95 -1
740 159 1
741 96 -1
741 116 1
742 96 -1
742 139 1
743 96 -1
743 159 1
744 96 -1
744 160 1
745 97 -1
745 145 1
746 97 -1
746 121 1
747 97 -1
747 119 1
748 97 -1
748 112 1
749 97 -1
749 101 1
750 97 -1
750 98 1
751 97 -1
751 154 1
752 97 -1
752 99 1
753 97 -1
753 100 1
754 98 -1
754 146 1
755 98 -1
755 122 1
756 98 -1
756 118 1
757 98 -1
757 110 1
758 98 -1
758 102 1
759 98 -1
759 153 1
760 98 -1
760 100 1
761 98 -1
761 99 1
762 99 -1
762 147 1
763 99 -1
763 124 1
764 99 -1
764 120 1
765 99 -1
765 111 1
766 99 -1
766 104 1
767 99 -1
767 100 1
768 99 -1
768 156 1
769 100 -1
769 148 1
770 100 -1
770 123 1
771 100 -1
771 117 1
772 100 -1
772 109 1
773 100 -1
773 103 1
774 100 -1
774 155 1
775 101 -1
775 149 1
776 101 -1
776 125 1
777 101 -1
777 112 1
778 101 -1
778 119 1
779 101 -1
779 105 1
780 101 -1
780 150 1
781 101 -1
781 113 1
782 101 -1
782 117 1
783 102 -1
783 150 1
784 102 -1
784 126 1
785 102 -1
785 110 1
786 102 -1
786 118 1
787 102 -1
787 106 1
788 102 -1
788 149 1
789 102 -1
789 116 1
790 102 -1
790 120 1
791 103 -1
791 152 1
792 103 -1
792 128 1
793 103 -1
793 109 1
794 103 -1
794 117 1
795 103 -1
795 107 1
796 103 -1
796 151 1
797 103 -1
797 115 1
798 103 -1
798 119 1
799 104 -1
799 151 1
800 104 -1
800 127 1
801 104 -1
801 111 1
802 104 -1
802 120 1
803 104 -1
803 108 1
804 104 -1
804 152 1
805 104 -1
805 114 1
806 104 -1
806 118 1
807 105 -1
807 153 1
808 105 -1
808 129 1
809 105 -1
809 108 1
810 105 -1
810 107 1
811 105 -1
811 106 1
812 105 -1
812 146 1
813 105 -1
813 117 1
814 105 -1
814 113 1
815 106 -1
815 154 1
816 106 -1
816 130 1
817 106 -1
817 107 1
818 106 -1
818 108 1
819 106 -1
819 145 1
820 106 -1
820 120 1
821 106 -1
821 116 1
822 107 -1
822 156 1
823 107 -1
823 132 1
824 107 -1
824 108 1
825 107 -1
825 147 1
826 107 -1
826 119 1
827 107 -1
827 115 1
828 108 -1
828 155 1
829 108 -1
829 131 1
830 108 -1
830 148 1
831 108 -1
831 118 1
832 108 -1
832 114 1
833 109 -1
833 165 1
834 109 -1
834 141 1
835 109 -1
835 117 1
836 109 -1
836 110 1
837 109 -1
837 158 1
838 109 -1
838 111 1
839 109 -1
839 112 1
840 110 -1
840 166 1
841 110 -1
841 142 1
842 110 -1
842 118 1
843 110 -1
843 157 1
844 110 -1
844 112 1
845 110 -1
845 111 1
846 111 -1
846 167 1
847 111 -1
847 144 1
848 111 -1
848 120 1
849 111 -1
849 112 1
850 111 -1
850 160 1
851 112 -1
851 168 1
852 112 -1
852 143 1
853 112 -1
853 119 1
854 112 -1
854 159 1
855 113 -1
855 157 1
856 113 -1
856 137 1
857 113 -1
857 116 1
858 113 -1
858 115 1
859 113 -1
859 114 1
860 113 -1
860 117 1
861 113 -1
861 166 1
862 114 -1
862 158 1
863 114 -1
863 138 1
864 114 -1
864 115 1
865 114 -1
865 116 1
866 114 -1
866 118 1
867 114 -1
867 165 1
868 115 -1
868 160 1
869 115 -1
869 140 1
870 115 -1
870 116 1
871 115 -1
871 119 1
872 115 -1
872 167 1
873 116 -1
873 159 1
874 116 -1
874 139 1
875 116 -1
875 120 1
876 116 -1
876 168 1
877 117 -1
877 161 1
878 117 -1
878 133 1
879 117 -1
879 162 1
880 118 -1
880 162 1
881 118 -1
881 134 1
882 118 -1
882 161 1
883 119 -1
883 164 1
884 119 -1
884 136 1
885 119 -1
885 163 1
886 120 -1
886 163 1
887 120 -1
887 135 1
888 120 -1
888 164 1
889 121 -1
889 145 1
890 121 -1
890 143 1
891 121 -1
891 136 1
892 121 -1
892 125 1
893 121 -1
893 146 1
894 121 -1
894 130 1
895 121 -1
895 138 1
896 121 -1
896 141 1
897 122 -1
897 146 1
898 122 -1
898 142 1
899 122 -1
899 134 1
900 122 -1
900 126 1
901 122 -1
901 145 1
902 122 -1
902 129 1
903 122 -1
903 140 1
904 122 -1
904 144 1
905 123 -1
905 148 1
906 123 -1
906 141 1
907 123 -1
907 133 1
908 123 -1
908 128 1
909 123 -1
909 147 1
910 123 -1
910 131 1
911 123 -1
911 139 1
912 123 -1
912 143 1
913 124 -1
913 147 1
914 124 -1
914 144 1
915 124 -1
915 135 1
916 124 -1
916 127 1
917 124 -1
917 148 1
918 124 -1
918 132 1
919 124 -1
919 137 1
920 124 -1
920 142 1
921 125 -1
921 149 1
922 125 -1
922 136 1
923 125 -1
923 143 1
924 125 -1
924 153 1
925 125 -1
925 126 1
926 125 -1
926 127 1
927 125 -1
927 128 1
928 126 -1
928 150 1
929 126 -1
929 134 1
930 126 -1
930 142 1
931 126 -1
931 154 1
932 126 -1
932 128 1
933 126 -1
933 127 1
934 127 -1
934 151 1
935 127 -1
935 135 1
936 127 -1
936 144 1
937 127 -1
937 155 1
938 127 -1
938 128 1
939 128 -1
939 152 1
940 128 -1
940 133 1
941 128 -1
941 141 1
942 128 -1
942 156 1
943 129 -1
943 153 1
944 129 -1
944 132 1
945 129 -1
945 131 1
946 129 -1
946 130 1
947 129 -1
947 149 1
948 129 -1
948 144 1
949 129 -1
949 140 1
950 130 -1
950 154 1
951 130 -1
951 131 1
952 130 -1
952 132 1
953 130 -1
953 150 1
954 130 -1
954 141 1
955 130 -1
955 138 1
956 131 -1
956 155 1
957 131 -1
957 132 1
958 131 -1
958 151 1
959 131 -1
959 143 1
960 131 -1
960 139 1
961 132 -1
961 156 1
962 132 -1
962 152 1
963 132 -1
963 142 1
964 132 -1
964 137 1
965 133 -1
965 161 1
966 133 -1
966 141 1
967 133 -1
967 157 1
968 133 -1
968 134 1
969 133 -1
969 135 1
970 133 -1
970 136 1
971 134 -1
971 162 1
972 134 -1
972 142 1
973 134 -1
973 158 1
974 134 -1
974 136 1
975 134 -1
975 135 1
976 135 -1
976 163 1
977 135 -1
977 144 1
978 135 -1
978 159 1
979 135 -1
979 136 1
980 136 -1
980 164 1
981 136 -1
981 143 1
982 136 -1
982 160 1
983 137 -1
983 157 1
984 137 -1
984 140 1
985 137 -1
985 139 1
986 137 -1
986 138 1
987 137 -1
987 161 1
988 137 -1
988 142 1
989 138 -1
989 158 1
990 138 -1
990 139 1
991 138 -1
991 140 1
992 138 -1
992 162 1
993 138 -1
993 141 1
994 139 -1
994 159 1
995 139 -1
995 140 1
996 139 -1
996 163 1
997 139 -1
997 143 1
998 140 -1
998 160 1
999 140 -1
999 164 1
1000 140 -1
1000 144 1
1001 141 -1
1001 165 1
1002 141 -1
1002 166 1
1003 142 -1
1003 166 1
1004 142 -1
1004 165 1
1005 143 -1
1005 168 1
1006 143 -1
1006 167 1
1007 144 -1
1007 167 1
1008 144 -1
1008 168 1
